<number of tasks>
45

<cycle time>
138

<task times>
1 9
2 9
3 10
4 10
5 17
6 17
7 13
8 13
9 20
10 20
11 10
12 11
13 6
14 22
15 11
16 19
17 12
18 3
19 7
20 4
21 55
22 14
23 27
24 29
25 26
26 6
27 5
28 24
29 4
30 5
31 7
32 4
33 15
34 3
35 7
36 9
37 4
38 7
39 5
40 4
41 21
42 12
43 6
44 5
45 5

<precedence relations>
1,3
1,7
2,4
2,8
3,5
4,6
5,9
6,10
7,9
7,14
8,10
8,14
9,41
10,41
11,13
12,13
12,37
13,14
13,15
14,17
14,25
14,29
14,30
14,31
14,32
15,16
15,18
15,23
15,24
16,19
17,26
17,27
18,19
19,20
19,33
20,21
21,22
22,28
23,33
24,33
25,26
26,38
27,28
27,33
28,38
29,41
30,41
31,41
32,41
33,34
33,35
33,36
34,38
35,40
36,38
37,43
38,40
39,41
40,41
41,42
42,44
42,45

<setup times forward>
1,6:2
1,10:2
1,18:2
1,19:1
1,20:1
1,21:1
1,22:1
1,23:2
1,24:2
1,37:1
1,39:1
1,43:1
2,9:2
2,18:2
2,19:1
2,20:1
2,21:1
2,22:1
2,23:2
2,24:2
2,37:1
2,39:1
2,43:1
3,6:2
3,10:2
3,14:2
3,17:1
3,18:2
3,19:1
3,20:1
3,21:1
3,22:1
3,23:2
3,24:2
3,25:1
3,26:1
3,27:1
3,28:1
3,29:1
3,30:1
3,31:1
3,32:1
3,33:1
3,34:1
3,35:1
3,36:1
3,37:1
3,38:1
3,39:1
3,40:1
3,43:1
4,6:2
4,9:2
4,14:2
4,17:1
4,18:2
4,19:1
4,20:1
4,21:1
4,22:1
4,23:2
4,24:2
4,25:1
4,26:1
4,27:1
4,28:1
4,29:1
4,30:1
4,31:1
4,32:1
4,33:1
4,34:1
4,35:1
4,36:1
4,37:1
4,38:1
4,39:1
4,40:1
4,43:1
5,6:2
5,9:2
5,10:2
5,14:2
5,17:1
5,18:2
5,19:1
5,20:1
5,21:1
5,22:1
5,23:2
5,24:2
5,25:1
5,26:1
5,27:1
5,28:1
5,29:1
5,30:1
5,31:1
5,32:1
5,33:1
5,34:1
5,35:1
5,36:1
5,37:1
5,38:1
5,39:1
5,40:1
5,43:1
6,1:2
6,3:2
6,5:2
6,7:2
6,8:2
6,11:2
6,12:2
6,13:2
6,15:2
6,16:2
6,17:3
6,19:3
6,20:3
6,21:3
6,22:1
6,25:3
6,26:1
6,27:3
6,28:1
6,29:3
6,30:3
6,31:3
6,32:3
6,33:1
6,34:1
6,35:1
6,36:1
6,37:3
6,38:1
6,39:3
6,40:1
6,43:1
7,6:2
7,9:2
7,10:2
7,14:2
7,18:2
7,19:1
7,20:1
7,21:1
7,22:1
7,23:2
7,24:2
7,37:1
7,39:1
7,43:1
8,6:2
8,9:2
8,10:2
8,14:2
8,18:2
8,19:1
8,20:1
8,21:1
8,22:1
8,23:2
8,24:2
8,37:1
8,39:1
8,43:1
9,2:2
9,4:2
9,8:2
9,11:2
9,12:2
9,13:2
9,15:2
9,16:2
9,17:3
9,19:3
9,20:3
9,21:3
9,22:1
9,25:3
9,26:1
9,27:3
9,28:1
9,29:3
9,30:3
9,31:3
9,32:3
9,33:1
9,34:1
9,35:1
9,36:1
9,37:3
9,38:1
9,39:3
9,40:1
9,41:1
9,43:1
10,1:2
10,3:2
10,5:2
10,7:2
10,11:2
10,12:2
10,13:2
10,15:2
10,16:2
10,17:3
10,19:3
10,20:3
10,21:3
10,22:1
10,25:3
10,26:1
10,27:3
10,28:1
10,29:3
10,30:3
10,31:3
10,32:3
10,33:1
10,34:1
10,35:1
10,36:1
10,37:3
10,38:1
10,39:3
10,40:1
10,41:1
10,43:1
11,6:2
11,9:2
11,10:2
11,37:1
11,39:1
11,43:1
12,6:2
12,9:2
12,10:2
12,37:1
12,39:1
13,6:2
13,9:2
13,10:2
13,14:2
13,37:1
13,39:1
13,43:1
14,3:2
14,4:2
14,5:2
14,15:2
14,16:2
14,17:3
14,19:3
14,20:3
14,21:3
14,22:1
14,25:3
14,29:3
14,30:3
14,31:3
14,32:3
14,37:3
14,39:3
14,43:1
15,6:2
15,9:2
15,10:2
15,14:2
15,17:1
15,18:2
15,23:2
15,24:2
15,25:1
15,26:1
15,27:1
15,29:1
15,30:1
15,31:1
15,32:1
15,37:1
15,39:1
15,43:1
16,6:2
16,9:2
16,10:2
16,14:2
16,17:1
16,18:2
16,19:1
16,23:2
16,24:2
16,25:1
16,26:1
16,27:1
16,29:1
16,30:1
16,31:1
16,32:1
16,37:1
16,39:1
16,43:1
17,3:1
17,4:1
17,5:1
17,6:3
17,9:3
17,10:3
17,15:1
17,16:1
17,18:3
17,22:2
17,23:3
17,24:3
17,26:2
17,43:2
18,1:2
18,2:2
18,3:2
18,4:2
18,5:2
18,7:2
18,8:2
18,16:2
18,17:3
18,19:3
18,25:3
18,26:1
18,27:3
18,29:3
18,30:3
18,31:3
18,32:3
18,37:3
18,39:3
18,43:1
19,1:1
19,2:1
19,3:1
19,4:1
19,5:1
19,6:3
19,7:1
19,8:1
19,9:3
19,10:3
19,14:3
19,23:3
19,24:3
19,26:2
19,33:2
19,43:2
20,1:1
20,2:1
20,3:1
20,4:1
20,5:1
20,6:3
20,7:1
20,8:1
20,9:3
20,10:3
20,14:3
20,23:3
20,24:3
20,26:2
20,33:2
20,34:2
20,35:2
20,36:2
20,43:2
21,1:1
21,2:1
21,3:1
21,4:1
21,5:1
21,6:3
21,7:1
21,8:1
21,9:3
21,10:3
21,14:3
21,22:2
21,23:3
21,24:3
21,26:2
21,33:2
21,34:2
21,35:2
21,36:2
21,43:2
22,1:1
22,2:1
22,3:1
22,4:1
22,5:1
22,6:1
22,7:1
22,8:1
22,9:1
22,10:1
22,14:1
22,17:2
22,23:1
22,24:1
22,25:2
22,27:2
22,29:2
22,30:2
22,31:2
22,32:2
22,37:2
22,39:2
23,1:2
23,2:2
23,3:2
23,4:2
23,5:2
23,7:2
23,8:2
23,16:2
23,17:3
23,19:3
23,20:3
23,21:3
23,22:1
23,25:3
23,26:1
23,27:3
23,28:1
23,29:3
23,30:3
23,31:3
23,32:3
23,33:1
23,37:3
23,39:3
23,43:1
24,1:2
24,2:2
24,3:2
24,4:2
24,5:2
24,7:2
24,8:2
24,16:2
24,17:3
24,19:3
24,20:3
24,21:3
24,22:1
24,25:3
24,26:1
24,27:3
24,28:1
24,29:3
24,30:3
24,31:3
24,32:3
24,33:1
24,37:3
24,39:3
24,43:1
25,3:1
25,4:1
25,5:1
25,6:3
25,9:3
25,10:3
25,15:1
25,16:1
25,18:3
25,22:2
25,23:3
25,24:3
25,26:2
25,28:2
25,33:2
25,34:2
25,35:2
25,36:2
25,43:2
26,3:1
26,4:1
26,5:1
26,6:1
26,9:1
26,10:1
26,15:1
26,16:1
26,18:1
26,19:2
26,20:2
26,21:2
26,23:1
26,24:1
26,27:2
26,29:2
26,30:2
26,31:2
26,32:2
26,37:2
26,39:2
27,3:1
27,4:1
27,5:1
27,6:3
27,9:3
27,10:3
27,15:1
27,16:1
27,18:3
27,22:2
27,23:3
27,24:3
27,26:2
27,28:2
27,33:2
27,43:2
28,3:1
28,4:1
28,5:1
28,6:1
28,9:1
28,10:1
28,23:1
28,24:1
28,25:2
28,29:2
28,30:2
28,31:2
28,32:2
28,37:2
28,39:2
29,3:1
29,4:1
29,5:1
29,6:3
29,9:3
29,10:3
29,15:1
29,16:1
29,18:3
29,22:2
29,23:3
29,24:3
29,26:2
29,28:2
29,33:2
29,34:2
29,35:2
29,36:2
29,38:2
29,40:2
29,41:2
29,43:2
30,3:1
30,4:1
30,5:1
30,6:3
30,9:3
30,10:3
30,15:1
30,16:1
30,18:3
30,22:2
30,23:3
30,24:3
30,26:2
30,28:2
30,33:2
30,34:2
30,35:2
30,36:2
30,38:2
30,40:2
30,41:2
30,43:2
31,3:1
31,4:1
31,5:1
31,6:3
31,9:3
31,10:3
31,15:1
31,16:1
31,18:3
31,22:2
31,23:3
31,24:3
31,26:2
31,28:2
31,33:2
31,34:2
31,35:2
31,36:2
31,38:2
31,40:2
31,41:2
31,43:2
32,3:1
32,4:1
32,5:1
32,6:3
32,9:3
32,10:3
32,15:1
32,16:1
32,18:3
32,22:2
32,23:3
32,24:3
32,26:2
32,28:2
32,33:2
32,34:2
32,35:2
32,36:2
32,38:2
32,40:2
32,41:2
32,43:2
33,3:1
33,4:1
33,5:1
33,6:1
33,9:1
33,10:1
33,20:2
33,21:2
33,25:2
33,29:2
33,30:2
33,31:2
33,32:2
33,37:2
33,39:2
34,3:1
34,4:1
34,5:1
34,6:1
34,9:1
34,10:1
34,20:2
34,21:2
34,25:2
34,29:2
34,30:2
34,31:2
34,32:2
34,37:2
34,39:2
35,3:1
35,4:1
35,5:1
35,6:1
35,9:1
35,10:1
35,20:2
35,21:2
35,25:2
35,29:2
35,30:2
35,31:2
35,32:2
35,37:2
35,39:2
36,3:1
36,4:1
36,5:1
36,6:1
36,9:1
36,10:1
36,20:2
36,21:2
36,25:2
36,29:2
36,30:2
36,31:2
36,32:2
36,37:2
36,39:2
37,1:1
37,2:1
37,3:1
37,4:1
37,5:1
37,6:3
37,7:1
37,8:1
37,9:3
37,10:3
37,11:1
37,13:1
37,14:3
37,15:1
37,16:1
37,18:3
37,22:2
37,23:3
37,24:3
37,26:2
37,28:2
37,33:2
37,34:2
37,35:2
37,36:2
37,38:2
37,40:2
37,41:2
37,42:2
37,43:2
37,44:2
37,45:2
38,3:1
38,4:1
38,5:1
38,6:1
38,9:1
38,10:1
38,29:2
38,30:2
38,31:2
38,32:2
38,37:2
38,39:2
39,1:1
39,2:1
39,3:1
39,4:1
39,5:1
39,6:3
39,7:1
39,8:1
39,9:3
39,10:3
39,11:1
39,12:1
39,13:1
39,14:3
39,15:1
39,16:1
39,18:3
39,22:2
39,23:3
39,24:3
39,26:2
39,28:2
39,33:2
39,34:2
39,35:2
39,36:2
39,38:2
39,40:2
39,41:2
39,43:2
40,3:1
40,4:1
40,5:1
40,6:1
40,9:1
40,10:1
40,29:2
40,30:2
40,31:2
40,32:2
40,37:2
40,39:2
41,37:2
42,37:2
43,1:1
43,2:1
43,3:1
43,4:1
43,5:1
43,6:1
43,7:1
43,8:1
43,9:1
43,10:1
43,11:1
43,13:1
43,14:1
43,15:1
43,16:1
43,17:2
43,18:1
43,19:2
43,20:2
43,21:2
43,23:1
43,24:1
43,25:2
43,27:2
43,29:2
43,30:2
43,31:2
43,32:2
43,39:2
44,37:2
45,37:2

<setup times backward>
1,19:1
1,20:1
1,21:1
1,37:1
1,39:1
2,19:1
2,20:1
2,21:1
2,37:1
2,39:1
3,17:1
3,19:1
3,20:1
3,21:1
3,25:1
3,27:1
3,29:1
3,30:1
3,31:1
3,32:1
3,37:1
3,39:1
4,17:1
4,19:1
4,20:1
4,21:1
4,25:1
4,27:1
4,29:1
4,30:1
4,31:1
4,32:1
4,37:1
4,39:1
5,17:1
5,19:1
5,20:1
5,21:1
5,25:1
5,27:1
5,29:1
5,30:1
5,31:1
5,32:1
5,37:1
5,39:1
6,1:2
6,2:2
6,3:2
6,4:2
6,5:2
6,7:2
6,8:2
6,11:2
6,12:2
6,13:2
6,15:2
6,16:2
6,17:3
6,19:3
6,20:3
6,21:3
6,22:1
6,25:3
6,26:1
6,27:3
6,28:1
6,29:3
6,30:3
6,31:3
6,32:3
6,33:1
6,34:1
6,35:1
6,36:1
6,37:3
6,38:1
6,39:3
6,40:1
6,43:1
7,19:1
7,20:1
7,21:1
7,37:1
7,39:1
8,19:1
8,20:1
8,21:1
8,37:1
8,39:1
9,1:2
9,2:2
9,3:2
9,4:2
9,5:2
9,7:2
9,8:2
9,11:2
9,12:2
9,13:2
9,15:2
9,16:2
9,17:3
9,19:3
9,20:3
9,21:3
9,22:1
9,25:3
9,26:1
9,27:3
9,28:1
9,29:3
9,30:3
9,31:3
9,32:3
9,33:1
9,34:1
9,35:1
9,36:1
9,37:3
9,38:1
9,39:3
9,40:1
9,43:1
10,1:2
10,2:2
10,3:2
10,4:2
10,5:2
10,7:2
10,8:2
10,11:2
10,12:2
10,13:2
10,15:2
10,16:2
10,17:3
10,19:3
10,20:3
10,21:3
10,22:1
10,25:3
10,26:1
10,27:3
10,28:1
10,29:3
10,30:3
10,31:3
10,32:3
10,33:1
10,34:1
10,35:1
10,36:1
10,37:3
10,38:1
10,39:3
10,40:1
10,43:1
11,37:1
11,39:1
12,39:1
13,37:1
13,39:1
14,1:2
14,2:2
14,3:2
14,4:2
14,5:2
14,7:2
14,8:2
14,11:2
14,12:2
14,13:2
14,15:2
14,16:2
14,19:3
14,20:3
14,21:3
14,22:1
14,37:3
14,39:3
14,43:1
15,17:1
15,25:1
15,27:1
15,29:1
15,30:1
15,31:1
15,32:1
15,37:1
15,39:1
16,17:1
16,25:1
16,27:1
16,29:1
16,30:1
16,31:1
16,32:1
16,37:1
16,39:1
18,1:2
18,2:2
18,3:2
18,4:2
18,5:2
18,7:2
18,8:2
18,11:2
18,12:2
18,13:2
18,15:2
18,16:2
18,17:3
18,25:3
18,26:1
18,27:3
18,29:3
18,30:3
18,31:3
18,32:3
18,37:3
18,39:3
18,43:1
22,1:1
22,2:1
22,3:1
22,4:1
22,5:1
22,7:1
22,8:1
22,11:1
22,12:1
22,13:1
22,15:1
22,16:1
22,17:2
22,19:2
22,20:2
22,21:2
22,25:2
22,27:2
22,29:2
22,30:2
22,31:2
22,32:2
22,37:2
22,39:2
23,1:2
23,2:2
23,3:2
23,4:2
23,5:2
23,7:2
23,8:2
23,11:2
23,12:2
23,13:2
23,15:2
23,16:2
23,17:3
23,19:3
23,20:3
23,21:3
23,22:1
23,25:3
23,26:1
23,27:3
23,28:1
23,29:3
23,30:3
23,31:3
23,32:3
23,37:3
23,39:3
23,43:1
24,1:2
24,2:2
24,3:2
24,4:2
24,5:2
24,7:2
24,8:2
24,11:2
24,12:2
24,13:2
24,15:2
24,16:2
24,17:3
24,19:3
24,20:3
24,21:3
24,22:1
24,25:3
24,26:1
24,27:3
24,28:1
24,29:3
24,30:3
24,31:3
24,32:3
24,37:3
24,39:3
24,43:1
26,1:1
26,2:1
26,3:1
26,4:1
26,5:1
26,7:1
26,8:1
26,11:1
26,12:1
26,13:1
26,15:1
26,16:1
26,17:2
26,19:2
26,20:2
26,21:2
26,25:2
26,27:2
26,29:2
26,30:2
26,31:2
26,32:2
26,37:2
26,39:2
28,1:1
28,2:1
28,3:1
28,4:1
28,5:1
28,7:1
28,8:1
28,11:1
28,12:1
28,13:1
28,15:1
28,16:1
28,17:2
28,19:2
28,20:2
28,21:2
28,25:2
28,27:2
28,29:2
28,30:2
28,31:2
28,32:2
28,37:2
28,39:2
33,1:1
33,2:1
33,3:1
33,4:1
33,5:1
33,7:1
33,8:1
33,11:1
33,12:1
33,13:1
33,15:1
33,16:1
33,17:2
33,19:2
33,20:2
33,21:2
33,25:2
33,27:2
33,29:2
33,30:2
33,31:2
33,32:2
33,37:2
33,39:2
34,1:1
34,2:1
34,3:1
34,4:1
34,5:1
34,7:1
34,8:1
34,11:1
34,12:1
34,13:1
34,15:1
34,16:1
34,17:2
34,19:2
34,20:2
34,21:2
34,25:2
34,27:2
34,29:2
34,30:2
34,31:2
34,32:2
34,37:2
34,39:2
35,1:1
35,2:1
35,3:1
35,4:1
35,5:1
35,7:1
35,8:1
35,11:1
35,12:1
35,13:1
35,15:1
35,16:1
35,17:2
35,19:2
35,20:2
35,21:2
35,25:2
35,27:2
35,29:2
35,30:2
35,31:2
35,32:2
35,37:2
35,39:2
36,1:1
36,2:1
36,3:1
36,4:1
36,5:1
36,7:1
36,8:1
36,11:1
36,12:1
36,13:1
36,15:1
36,16:1
36,17:2
36,19:2
36,20:2
36,21:2
36,25:2
36,27:2
36,29:2
36,30:2
36,31:2
36,32:2
36,37:2
36,39:2
38,1:1
38,2:1
38,3:1
38,4:1
38,5:1
38,7:1
38,8:1
38,11:1
38,12:1
38,13:1
38,15:1
38,16:1
38,17:2
38,19:2
38,20:2
38,21:2
38,25:2
38,27:2
38,29:2
38,30:2
38,31:2
38,32:2
38,37:2
38,39:2
40,1:1
40,2:1
40,3:1
40,4:1
40,5:1
40,7:1
40,8:1
40,11:1
40,12:1
40,13:1
40,15:1
40,16:1
40,17:2
40,19:2
40,20:2
40,21:2
40,25:2
40,27:2
40,29:2
40,30:2
40,31:2
40,32:2
40,37:2
40,39:2
41,1:1
41,2:1
41,3:1
41,4:1
41,5:1
41,7:1
41,8:1
41,11:1
41,12:1
41,13:1
41,15:1
41,16:1
41,17:2
41,19:2
41,20:2
41,21:2
41,25:2
41,27:2
41,29:2
41,30:2
41,31:2
41,32:2
41,37:2
41,39:2
42,1:1
42,2:1
42,3:1
42,4:1
42,5:1
42,7:1
42,8:1
42,11:1
42,12:1
42,13:1
42,15:1
42,16:1
42,17:2
42,19:2
42,20:2
42,21:2
42,25:2
42,27:2
42,29:2
42,30:2
42,31:2
42,32:2
42,37:2
42,39:2
43,1:1
43,2:1
43,3:1
43,4:1
43,5:1
43,7:1
43,8:1
43,11:1
43,12:1
43,13:1
43,15:1
43,16:1
43,17:2
43,19:2
43,20:2
43,21:2
43,25:2
43,27:2
43,29:2
43,30:2
43,31:2
43,32:2
43,37:2
43,39:2
44,1:1
44,2:1
44,3:1
44,4:1
44,5:1
44,7:1
44,8:1
44,11:1
44,12:1
44,13:1
44,15:1
44,16:1
44,17:2
44,19:2
44,20:2
44,21:2
44,25:2
44,27:2
44,29:2
44,30:2
44,31:2
44,32:2
44,37:2
44,39:2
45,1:1
45,2:1
45,3:1
45,4:1
45,5:1
45,7:1
45,8:1
45,11:1
45,12:1
45,13:1
45,15:1
45,16:1
45,17:2
45,19:2
45,20:2
45,21:2
45,25:2
45,27:2
45,29:2
45,30:2
45,31:2
45,32:2
45,37:2
45,39:2

<end>

<optimal SALBP-1 value>
4


<rand seed>
467321153

